[450, 384, 360, 344, 288, 208, 208, 124, 140, 98, 96, 92, 86, 82, 76, 78, 72, 74, 74, 72, 66, 64, 66, 66, 66, 66, 64, 66, 64, 66, 66, 66, 66, 66, 64, 66, 66, 66, 66, 66, 66, 66, 64, 64, 64, 64, 66, 64, 66, 66, 66, 66, 66, 66, 64, 64, 66, 66, 66, 64, 64, 64, 64, 66, 66, 64, 64, 64, 64, 64, 64, 64, 64, 64, 64, 64, 64, 64, 64, 64, 64, 64, 64, 64, 64, 64, 64, 64, 64, 64, 64, 64, 64, 64, 64, 64, 64, 64, 64, 64, 64, 64, 64, 64, 64, 64, 64, 64, 64, 64, 64, 64, 64, 64, 64, 64, 64, 64, 64, 64, 64, 64, 64, 64, 64, 64, 64, 64, 66, 64, 64, 64, 64, 64, 64, 64, 64, 64, 66, 64, 64, 64, 64, 64, 64, 64, 64, 64, 64, 64, 64, 64, 64, 64, 64, 64, 64, 64, 64, 64, 64, 64, 64, 64, 64, 64, 64, 64, 64, 64, 64, 64, 64, 64, 64, 64, 64, 64, 64, 64, 64, 64, 64, 64, 64, 64, 64, 64, 66, 64, 66, 64, 66, 66, 64, 64, 64, 64, 64, 64]